Traveling Salesman Problem/TSP_generados/Aleatorio1621103374_12.tsp
NAME: Aleatorio1621103374_12.tsp
COMMENT: Randomly generated scenario
TYPE: TSP
DIMENSION: 12
EDGE_WEIGHT_TYPE: ATT
NODE_COORD_SECTION
1 20.26 37.5
2 18.73 21.85
3 26.59 16.12
4 20.86 35.02
5 40.69 33.83
6 32.42 41.94
7 39.75 34.98
8 25.35 1.39
9 48.72 8.11
10 0.56 22.72
11 30.04 39.18
12 19.94 34.21
