Traveling Salesman Problem/TSP_generados/Aleatorio1621103374_12.opt.tour
NAME: Aleatorio1621103374_12.opt.tour
COMMENT: Optimal solution for Aleatorio1621103374_12 (145.42948624606473)
TYPE: TOUR
DIMENSION: 12
TOUR_SECTION
1 4 12 10 2 3 8 9 5 7 6 11
-1
EOF
